13664
1 0 1 0 0 1 0 0 1 0 0 1 0 1 1 0 0 1 0 0 1 0 0 0 1 0 0 0 0 0 
20 11 13 2 20 5 2 24 2 17 24 8 8 20 17 14 14 17 5 11 2 0 5 17 5 8 2 24 5 24 5 25 13 25 20 20 24 15 11 14 0 14 15 8 24 14 0 13 11 8 29 14 14 5 13 20 17 29 0 14 0 5 20 11 11 11 24 0 24 24 20 13 11 17 24 8 26 20 14 24 20 0 20 17 2 17 17 0 20 5 2 24 17 11 17 5 2 0 25 13 8 17 17 25 2 29 17 11 14 8 14 14 2 11 11 25 24 15 24 5 5 8 25 13 8 0 5 26 0 11 0 11 24 25 8 14 0 29 20 17 0 8 20 14 8 25 25 5 2 5 
